100
    1   100   100
    2    18    18
    3    76    76
    4    51    51
    5    26    26
    6    68    68
    7    79    79
    8    44    44
    9    64    64
   10    46    46
   11    18    18
   12    65    65
   13     1     1
   14    66    66
   15    80    80
   16    52    52
   17    93    93
   18    47    47
   19    66    66
   20     3     3
   21    72    72
   22    71    71
   23    47    47
   24    99    99
   25    60    60
   26    59    59
   27    32    32
   28    70    70
   29    33    33
   30    31    31
   31    69    69
   32    44    44
   33    93    93
   34    82    82
   35    12    12
   36    74    74
   37     1     1
   38    23    23
   39    74    74
   40    58    58
   41    57    57
   42    50    50
   43    20    20
   44    11    11
   45    96    96
   46    92    92
   47    75    75
   48    88    88
   49     1     1
   50     1     1
   51    92    92
   52    43    43
   53    58    58
   54    12    12
   55    88    88
   56     8     8
   57    38    38
   58    98    98
   59    75    75
   60    37    37
   61    50    50
   62    33    33
   63    56    56
   64    88    88
   65    16    16
   66    52    52
   67    25    25
   68    19    19
   69     4     4
   70    88    88
   71    41    41
   72    21    21
   73    72    72
   74    21    21
   75    81    81
   76    35    35
   77    44    44
   78    11    11
   79    39    39
   80    12    12
   81    27    27
   82    64    64
   83    38    38
   84    94    94
   85     6     6
   86    86    86
   87    90    90
   88    47    47
   89     3     3
   90    87    87
   91    59    59
   92    23    23
   93     2     2
   94    25    25
   95    90    90
   96    69    69
   97    19    19
   98    25    25
   99    12    12
  100    14    14
1631
